num_wann = 28
num_bands = 72
exclude_bands 1-8

num_iter = 1000000
dis_num_iter = 100000
num_cg_steps = 100
conv_window = 5
dis_conv_window = 5

write_xyz = true
write_u_matrices = true
write_hr = true

wannier_plot = true

auto_projections = true
dis_froz_proj = true
dis_proj_max = 0.95
dis_proj_min = 0.01
dis_froz_max = 11.1608

begin atoms_frac
Ti               0.5000000000        0.5000000000       -0.0000000000
Ti               0.0000000000        0.0000000000        0.5000000000
O                0.6955954903        0.6955954903        0.5000000000
O                0.8044045097        0.1955954903        0.0000000000
O                0.1955954903        0.8044045097        0.0000000000
O                0.3044045097        0.3044045097        0.5000000000
end atoms_frac

begin unit_cell_cart
   4.587891155   0.000000000   0.000000000
   0.000000000   4.587891155   0.000000000
   0.000000000   0.000000000   2.938131780
end unit_cell_cart

mp_grid = 7 7 11
begin kpoints
  0.00000000  0.00000000  0.00000000
  0.00000000  0.00000000  0.09090909
  0.00000000  0.00000000  0.18181818
  0.00000000  0.00000000  0.27272727
  0.00000000  0.00000000  0.36363636
  0.00000000  0.00000000  0.45454545
  0.00000000  0.00000000  0.54545455
  0.00000000  0.00000000  0.63636364
  0.00000000  0.00000000  0.72727273
  0.00000000  0.00000000  0.81818182
  0.00000000  0.00000000  0.90909091
  0.00000000  0.14285714  0.00000000
  0.00000000  0.14285714  0.09090909
  0.00000000  0.14285714  0.18181818
  0.00000000  0.14285714  0.27272727
  0.00000000  0.14285714  0.36363636
  0.00000000  0.14285714  0.45454545
  0.00000000  0.14285714  0.54545455
  0.00000000  0.14285714  0.63636364
  0.00000000  0.14285714  0.72727273
  0.00000000  0.14285714  0.81818182
  0.00000000  0.14285714  0.90909091
  0.00000000  0.28571429  0.00000000
  0.00000000  0.28571429  0.09090909
  0.00000000  0.28571429  0.18181818
  0.00000000  0.28571429  0.27272727
  0.00000000  0.28571429  0.36363636
  0.00000000  0.28571429  0.45454545
  0.00000000  0.28571429  0.54545455
  0.00000000  0.28571429  0.63636364
  0.00000000  0.28571429  0.72727273
  0.00000000  0.28571429  0.81818182
  0.00000000  0.28571429  0.90909091
  0.00000000  0.42857143  0.00000000
  0.00000000  0.42857143  0.09090909
  0.00000000  0.42857143  0.18181818
  0.00000000  0.42857143  0.27272727
  0.00000000  0.42857143  0.36363636
  0.00000000  0.42857143  0.45454545
  0.00000000  0.42857143  0.54545455
  0.00000000  0.42857143  0.63636364
  0.00000000  0.42857143  0.72727273
  0.00000000  0.42857143  0.81818182
  0.00000000  0.42857143  0.90909091
  0.00000000  0.57142857  0.00000000
  0.00000000  0.57142857  0.09090909
  0.00000000  0.57142857  0.18181818
  0.00000000  0.57142857  0.27272727
  0.00000000  0.57142857  0.36363636
  0.00000000  0.57142857  0.45454545
  0.00000000  0.57142857  0.54545455
  0.00000000  0.57142857  0.63636364
  0.00000000  0.57142857  0.72727273
  0.00000000  0.57142857  0.81818182
  0.00000000  0.57142857  0.90909091
  0.00000000  0.71428571  0.00000000
  0.00000000  0.71428571  0.09090909
  0.00000000  0.71428571  0.18181818
  0.00000000  0.71428571  0.27272727
  0.00000000  0.71428571  0.36363636
  0.00000000  0.71428571  0.45454545
  0.00000000  0.71428571  0.54545455
  0.00000000  0.71428571  0.63636364
  0.00000000  0.71428571  0.72727273
  0.00000000  0.71428571  0.81818182
  0.00000000  0.71428571  0.90909091
  0.00000000  0.85714286  0.00000000
  0.00000000  0.85714286  0.09090909
  0.00000000  0.85714286  0.18181818
  0.00000000  0.85714286  0.27272727
  0.00000000  0.85714286  0.36363636
  0.00000000  0.85714286  0.45454545
  0.00000000  0.85714286  0.54545455
  0.00000000  0.85714286  0.63636364
  0.00000000  0.85714286  0.72727273
  0.00000000  0.85714286  0.81818182
  0.00000000  0.85714286  0.90909091
  0.14285714  0.00000000  0.00000000
  0.14285714  0.00000000  0.09090909
  0.14285714  0.00000000  0.18181818
  0.14285714  0.00000000  0.27272727
  0.14285714  0.00000000  0.36363636
  0.14285714  0.00000000  0.45454545
  0.14285714  0.00000000  0.54545455
  0.14285714  0.00000000  0.63636364
  0.14285714  0.00000000  0.72727273
  0.14285714  0.00000000  0.81818182
  0.14285714  0.00000000  0.90909091
  0.14285714  0.14285714  0.00000000
  0.14285714  0.14285714  0.09090909
  0.14285714  0.14285714  0.18181818
  0.14285714  0.14285714  0.27272727
  0.14285714  0.14285714  0.36363636
  0.14285714  0.14285714  0.45454545
  0.14285714  0.14285714  0.54545455
  0.14285714  0.14285714  0.63636364
  0.14285714  0.14285714  0.72727273
  0.14285714  0.14285714  0.81818182
  0.14285714  0.14285714  0.90909091
  0.14285714  0.28571429  0.00000000
  0.14285714  0.28571429  0.09090909
  0.14285714  0.28571429  0.18181818
  0.14285714  0.28571429  0.27272727
  0.14285714  0.28571429  0.36363636
  0.14285714  0.28571429  0.45454545
  0.14285714  0.28571429  0.54545455
  0.14285714  0.28571429  0.63636364
  0.14285714  0.28571429  0.72727273
  0.14285714  0.28571429  0.81818182
  0.14285714  0.28571429  0.90909091
  0.14285714  0.42857143  0.00000000
  0.14285714  0.42857143  0.09090909
  0.14285714  0.42857143  0.18181818
  0.14285714  0.42857143  0.27272727
  0.14285714  0.42857143  0.36363636
  0.14285714  0.42857143  0.45454545
  0.14285714  0.42857143  0.54545455
  0.14285714  0.42857143  0.63636364
  0.14285714  0.42857143  0.72727273
  0.14285714  0.42857143  0.81818182
  0.14285714  0.42857143  0.90909091
  0.14285714  0.57142857  0.00000000
  0.14285714  0.57142857  0.09090909
  0.14285714  0.57142857  0.18181818
  0.14285714  0.57142857  0.27272727
  0.14285714  0.57142857  0.36363636
  0.14285714  0.57142857  0.45454545
  0.14285714  0.57142857  0.54545455
  0.14285714  0.57142857  0.63636364
  0.14285714  0.57142857  0.72727273
  0.14285714  0.57142857  0.81818182
  0.14285714  0.57142857  0.90909091
  0.14285714  0.71428571  0.00000000
  0.14285714  0.71428571  0.09090909
  0.14285714  0.71428571  0.18181818
  0.14285714  0.71428571  0.27272727
  0.14285714  0.71428571  0.36363636
  0.14285714  0.71428571  0.45454545
  0.14285714  0.71428571  0.54545455
  0.14285714  0.71428571  0.63636364
  0.14285714  0.71428571  0.72727273
  0.14285714  0.71428571  0.81818182
  0.14285714  0.71428571  0.90909091
  0.14285714  0.85714286  0.00000000
  0.14285714  0.85714286  0.09090909
  0.14285714  0.85714286  0.18181818
  0.14285714  0.85714286  0.27272727
  0.14285714  0.85714286  0.36363636
  0.14285714  0.85714286  0.45454545
  0.14285714  0.85714286  0.54545455
  0.14285714  0.85714286  0.63636364
  0.14285714  0.85714286  0.72727273
  0.14285714  0.85714286  0.81818182
  0.14285714  0.85714286  0.90909091
  0.28571429  0.00000000  0.00000000
  0.28571429  0.00000000  0.09090909
  0.28571429  0.00000000  0.18181818
  0.28571429  0.00000000  0.27272727
  0.28571429  0.00000000  0.36363636
  0.28571429  0.00000000  0.45454545
  0.28571429  0.00000000  0.54545455
  0.28571429  0.00000000  0.63636364
  0.28571429  0.00000000  0.72727273
  0.28571429  0.00000000  0.81818182
  0.28571429  0.00000000  0.90909091
  0.28571429  0.14285714  0.00000000
  0.28571429  0.14285714  0.09090909
  0.28571429  0.14285714  0.18181818
  0.28571429  0.14285714  0.27272727
  0.28571429  0.14285714  0.36363636
  0.28571429  0.14285714  0.45454545
  0.28571429  0.14285714  0.54545455
  0.28571429  0.14285714  0.63636364
  0.28571429  0.14285714  0.72727273
  0.28571429  0.14285714  0.81818182
  0.28571429  0.14285714  0.90909091
  0.28571429  0.28571429  0.00000000
  0.28571429  0.28571429  0.09090909
  0.28571429  0.28571429  0.18181818
  0.28571429  0.28571429  0.27272727
  0.28571429  0.28571429  0.36363636
  0.28571429  0.28571429  0.45454545
  0.28571429  0.28571429  0.54545455
  0.28571429  0.28571429  0.63636364
  0.28571429  0.28571429  0.72727273
  0.28571429  0.28571429  0.81818182
  0.28571429  0.28571429  0.90909091
  0.28571429  0.42857143  0.00000000
  0.28571429  0.42857143  0.09090909
  0.28571429  0.42857143  0.18181818
  0.28571429  0.42857143  0.27272727
  0.28571429  0.42857143  0.36363636
  0.28571429  0.42857143  0.45454545
  0.28571429  0.42857143  0.54545455
  0.28571429  0.42857143  0.63636364
  0.28571429  0.42857143  0.72727273
  0.28571429  0.42857143  0.81818182
  0.28571429  0.42857143  0.90909091
  0.28571429  0.57142857  0.00000000
  0.28571429  0.57142857  0.09090909
  0.28571429  0.57142857  0.18181818
  0.28571429  0.57142857  0.27272727
  0.28571429  0.57142857  0.36363636
  0.28571429  0.57142857  0.45454545
  0.28571429  0.57142857  0.54545455
  0.28571429  0.57142857  0.63636364
  0.28571429  0.57142857  0.72727273
  0.28571429  0.57142857  0.81818182
  0.28571429  0.57142857  0.90909091
  0.28571429  0.71428571  0.00000000
  0.28571429  0.71428571  0.09090909
  0.28571429  0.71428571  0.18181818
  0.28571429  0.71428571  0.27272727
  0.28571429  0.71428571  0.36363636
  0.28571429  0.71428571  0.45454545
  0.28571429  0.71428571  0.54545455
  0.28571429  0.71428571  0.63636364
  0.28571429  0.71428571  0.72727273
  0.28571429  0.71428571  0.81818182
  0.28571429  0.71428571  0.90909091
  0.28571429  0.85714286  0.00000000
  0.28571429  0.85714286  0.09090909
  0.28571429  0.85714286  0.18181818
  0.28571429  0.85714286  0.27272727
  0.28571429  0.85714286  0.36363636
  0.28571429  0.85714286  0.45454545
  0.28571429  0.85714286  0.54545455
  0.28571429  0.85714286  0.63636364
  0.28571429  0.85714286  0.72727273
  0.28571429  0.85714286  0.81818182
  0.28571429  0.85714286  0.90909091
  0.42857143  0.00000000  0.00000000
  0.42857143  0.00000000  0.09090909
  0.42857143  0.00000000  0.18181818
  0.42857143  0.00000000  0.27272727
  0.42857143  0.00000000  0.36363636
  0.42857143  0.00000000  0.45454545
  0.42857143  0.00000000  0.54545455
  0.42857143  0.00000000  0.63636364
  0.42857143  0.00000000  0.72727273
  0.42857143  0.00000000  0.81818182
  0.42857143  0.00000000  0.90909091
  0.42857143  0.14285714  0.00000000
  0.42857143  0.14285714  0.09090909
  0.42857143  0.14285714  0.18181818
  0.42857143  0.14285714  0.27272727
  0.42857143  0.14285714  0.36363636
  0.42857143  0.14285714  0.45454545
  0.42857143  0.14285714  0.54545455
  0.42857143  0.14285714  0.63636364
  0.42857143  0.14285714  0.72727273
  0.42857143  0.14285714  0.81818182
  0.42857143  0.14285714  0.90909091
  0.42857143  0.28571429  0.00000000
  0.42857143  0.28571429  0.09090909
  0.42857143  0.28571429  0.18181818
  0.42857143  0.28571429  0.27272727
  0.42857143  0.28571429  0.36363636
  0.42857143  0.28571429  0.45454545
  0.42857143  0.28571429  0.54545455
  0.42857143  0.28571429  0.63636364
  0.42857143  0.28571429  0.72727273
  0.42857143  0.28571429  0.81818182
  0.42857143  0.28571429  0.90909091
  0.42857143  0.42857143  0.00000000
  0.42857143  0.42857143  0.09090909
  0.42857143  0.42857143  0.18181818
  0.42857143  0.42857143  0.27272727
  0.42857143  0.42857143  0.36363636
  0.42857143  0.42857143  0.45454545
  0.42857143  0.42857143  0.54545455
  0.42857143  0.42857143  0.63636364
  0.42857143  0.42857143  0.72727273
  0.42857143  0.42857143  0.81818182
  0.42857143  0.42857143  0.90909091
  0.42857143  0.57142857  0.00000000
  0.42857143  0.57142857  0.09090909
  0.42857143  0.57142857  0.18181818
  0.42857143  0.57142857  0.27272727
  0.42857143  0.57142857  0.36363636
  0.42857143  0.57142857  0.45454545
  0.42857143  0.57142857  0.54545455
  0.42857143  0.57142857  0.63636364
  0.42857143  0.57142857  0.72727273
  0.42857143  0.57142857  0.81818182
  0.42857143  0.57142857  0.90909091
  0.42857143  0.71428571  0.00000000
  0.42857143  0.71428571  0.09090909
  0.42857143  0.71428571  0.18181818
  0.42857143  0.71428571  0.27272727
  0.42857143  0.71428571  0.36363636
  0.42857143  0.71428571  0.45454545
  0.42857143  0.71428571  0.54545455
  0.42857143  0.71428571  0.63636364
  0.42857143  0.71428571  0.72727273
  0.42857143  0.71428571  0.81818182
  0.42857143  0.71428571  0.90909091
  0.42857143  0.85714286  0.00000000
  0.42857143  0.85714286  0.09090909
  0.42857143  0.85714286  0.18181818
  0.42857143  0.85714286  0.27272727
  0.42857143  0.85714286  0.36363636
  0.42857143  0.85714286  0.45454545
  0.42857143  0.85714286  0.54545455
  0.42857143  0.85714286  0.63636364
  0.42857143  0.85714286  0.72727273
  0.42857143  0.85714286  0.81818182
  0.42857143  0.85714286  0.90909091
  0.57142857  0.00000000  0.00000000
  0.57142857  0.00000000  0.09090909
  0.57142857  0.00000000  0.18181818
  0.57142857  0.00000000  0.27272727
  0.57142857  0.00000000  0.36363636
  0.57142857  0.00000000  0.45454545
  0.57142857  0.00000000  0.54545455
  0.57142857  0.00000000  0.63636364
  0.57142857  0.00000000  0.72727273
  0.57142857  0.00000000  0.81818182
  0.57142857  0.00000000  0.90909091
  0.57142857  0.14285714  0.00000000
  0.57142857  0.14285714  0.09090909
  0.57142857  0.14285714  0.18181818
  0.57142857  0.14285714  0.27272727
  0.57142857  0.14285714  0.36363636
  0.57142857  0.14285714  0.45454545
  0.57142857  0.14285714  0.54545455
  0.57142857  0.14285714  0.63636364
  0.57142857  0.14285714  0.72727273
  0.57142857  0.14285714  0.81818182
  0.57142857  0.14285714  0.90909091
  0.57142857  0.28571429  0.00000000
  0.57142857  0.28571429  0.09090909
  0.57142857  0.28571429  0.18181818
  0.57142857  0.28571429  0.27272727
  0.57142857  0.28571429  0.36363636
  0.57142857  0.28571429  0.45454545
  0.57142857  0.28571429  0.54545455
  0.57142857  0.28571429  0.63636364
  0.57142857  0.28571429  0.72727273
  0.57142857  0.28571429  0.81818182
  0.57142857  0.28571429  0.90909091
  0.57142857  0.42857143  0.00000000
  0.57142857  0.42857143  0.09090909
  0.57142857  0.42857143  0.18181818
  0.57142857  0.42857143  0.27272727
  0.57142857  0.42857143  0.36363636
  0.57142857  0.42857143  0.45454545
  0.57142857  0.42857143  0.54545455
  0.57142857  0.42857143  0.63636364
  0.57142857  0.42857143  0.72727273
  0.57142857  0.42857143  0.81818182
  0.57142857  0.42857143  0.90909091
  0.57142857  0.57142857  0.00000000
  0.57142857  0.57142857  0.09090909
  0.57142857  0.57142857  0.18181818
  0.57142857  0.57142857  0.27272727
  0.57142857  0.57142857  0.36363636
  0.57142857  0.57142857  0.45454545
  0.57142857  0.57142857  0.54545455
  0.57142857  0.57142857  0.63636364
  0.57142857  0.57142857  0.72727273
  0.57142857  0.57142857  0.81818182
  0.57142857  0.57142857  0.90909091
  0.57142857  0.71428571  0.00000000
  0.57142857  0.71428571  0.09090909
  0.57142857  0.71428571  0.18181818
  0.57142857  0.71428571  0.27272727
  0.57142857  0.71428571  0.36363636
  0.57142857  0.71428571  0.45454545
  0.57142857  0.71428571  0.54545455
  0.57142857  0.71428571  0.63636364
  0.57142857  0.71428571  0.72727273
  0.57142857  0.71428571  0.81818182
  0.57142857  0.71428571  0.90909091
  0.57142857  0.85714286  0.00000000
  0.57142857  0.85714286  0.09090909
  0.57142857  0.85714286  0.18181818
  0.57142857  0.85714286  0.27272727
  0.57142857  0.85714286  0.36363636
  0.57142857  0.85714286  0.45454545
  0.57142857  0.85714286  0.54545455
  0.57142857  0.85714286  0.63636364
  0.57142857  0.85714286  0.72727273
  0.57142857  0.85714286  0.81818182
  0.57142857  0.85714286  0.90909091
  0.71428571  0.00000000  0.00000000
  0.71428571  0.00000000  0.09090909
  0.71428571  0.00000000  0.18181818
  0.71428571  0.00000000  0.27272727
  0.71428571  0.00000000  0.36363636
  0.71428571  0.00000000  0.45454545
  0.71428571  0.00000000  0.54545455
  0.71428571  0.00000000  0.63636364
  0.71428571  0.00000000  0.72727273
  0.71428571  0.00000000  0.81818182
  0.71428571  0.00000000  0.90909091
  0.71428571  0.14285714  0.00000000
  0.71428571  0.14285714  0.09090909
  0.71428571  0.14285714  0.18181818
  0.71428571  0.14285714  0.27272727
  0.71428571  0.14285714  0.36363636
  0.71428571  0.14285714  0.45454545
  0.71428571  0.14285714  0.54545455
  0.71428571  0.14285714  0.63636364
  0.71428571  0.14285714  0.72727273
  0.71428571  0.14285714  0.81818182
  0.71428571  0.14285714  0.90909091
  0.71428571  0.28571429  0.00000000
  0.71428571  0.28571429  0.09090909
  0.71428571  0.28571429  0.18181818
  0.71428571  0.28571429  0.27272727
  0.71428571  0.28571429  0.36363636
  0.71428571  0.28571429  0.45454545
  0.71428571  0.28571429  0.54545455
  0.71428571  0.28571429  0.63636364
  0.71428571  0.28571429  0.72727273
  0.71428571  0.28571429  0.81818182
  0.71428571  0.28571429  0.90909091
  0.71428571  0.42857143  0.00000000
  0.71428571  0.42857143  0.09090909
  0.71428571  0.42857143  0.18181818
  0.71428571  0.42857143  0.27272727
  0.71428571  0.42857143  0.36363636
  0.71428571  0.42857143  0.45454545
  0.71428571  0.42857143  0.54545455
  0.71428571  0.42857143  0.63636364
  0.71428571  0.42857143  0.72727273
  0.71428571  0.42857143  0.81818182
  0.71428571  0.42857143  0.90909091
  0.71428571  0.57142857  0.00000000
  0.71428571  0.57142857  0.09090909
  0.71428571  0.57142857  0.18181818
  0.71428571  0.57142857  0.27272727
  0.71428571  0.57142857  0.36363636
  0.71428571  0.57142857  0.45454545
  0.71428571  0.57142857  0.54545455
  0.71428571  0.57142857  0.63636364
  0.71428571  0.57142857  0.72727273
  0.71428571  0.57142857  0.81818182
  0.71428571  0.57142857  0.90909091
  0.71428571  0.71428571  0.00000000
  0.71428571  0.71428571  0.09090909
  0.71428571  0.71428571  0.18181818
  0.71428571  0.71428571  0.27272727
  0.71428571  0.71428571  0.36363636
  0.71428571  0.71428571  0.45454545
  0.71428571  0.71428571  0.54545455
  0.71428571  0.71428571  0.63636364
  0.71428571  0.71428571  0.72727273
  0.71428571  0.71428571  0.81818182
  0.71428571  0.71428571  0.90909091
  0.71428571  0.85714286  0.00000000
  0.71428571  0.85714286  0.09090909
  0.71428571  0.85714286  0.18181818
  0.71428571  0.85714286  0.27272727
  0.71428571  0.85714286  0.36363636
  0.71428571  0.85714286  0.45454545
  0.71428571  0.85714286  0.54545455
  0.71428571  0.85714286  0.63636364
  0.71428571  0.85714286  0.72727273
  0.71428571  0.85714286  0.81818182
  0.71428571  0.85714286  0.90909091
  0.85714286  0.00000000  0.00000000
  0.85714286  0.00000000  0.09090909
  0.85714286  0.00000000  0.18181818
  0.85714286  0.00000000  0.27272727
  0.85714286  0.00000000  0.36363636
  0.85714286  0.00000000  0.45454545
  0.85714286  0.00000000  0.54545455
  0.85714286  0.00000000  0.63636364
  0.85714286  0.00000000  0.72727273
  0.85714286  0.00000000  0.81818182
  0.85714286  0.00000000  0.90909091
  0.85714286  0.14285714  0.00000000
  0.85714286  0.14285714  0.09090909
  0.85714286  0.14285714  0.18181818
  0.85714286  0.14285714  0.27272727
  0.85714286  0.14285714  0.36363636
  0.85714286  0.14285714  0.45454545
  0.85714286  0.14285714  0.54545455
  0.85714286  0.14285714  0.63636364
  0.85714286  0.14285714  0.72727273
  0.85714286  0.14285714  0.81818182
  0.85714286  0.14285714  0.90909091
  0.85714286  0.28571429  0.00000000
  0.85714286  0.28571429  0.09090909
  0.85714286  0.28571429  0.18181818
  0.85714286  0.28571429  0.27272727
  0.85714286  0.28571429  0.36363636
  0.85714286  0.28571429  0.45454545
  0.85714286  0.28571429  0.54545455
  0.85714286  0.28571429  0.63636364
  0.85714286  0.28571429  0.72727273
  0.85714286  0.28571429  0.81818182
  0.85714286  0.28571429  0.90909091
  0.85714286  0.42857143  0.00000000
  0.85714286  0.42857143  0.09090909
  0.85714286  0.42857143  0.18181818
  0.85714286  0.42857143  0.27272727
  0.85714286  0.42857143  0.36363636
  0.85714286  0.42857143  0.45454545
  0.85714286  0.42857143  0.54545455
  0.85714286  0.42857143  0.63636364
  0.85714286  0.42857143  0.72727273
  0.85714286  0.42857143  0.81818182
  0.85714286  0.42857143  0.90909091
  0.85714286  0.57142857  0.00000000
  0.85714286  0.57142857  0.09090909
  0.85714286  0.57142857  0.18181818
  0.85714286  0.57142857  0.27272727
  0.85714286  0.57142857  0.36363636
  0.85714286  0.57142857  0.45454545
  0.85714286  0.57142857  0.54545455
  0.85714286  0.57142857  0.63636364
  0.85714286  0.57142857  0.72727273
  0.85714286  0.57142857  0.81818182
  0.85714286  0.57142857  0.90909091
  0.85714286  0.71428571  0.00000000
  0.85714286  0.71428571  0.09090909
  0.85714286  0.71428571  0.18181818
  0.85714286  0.71428571  0.27272727
  0.85714286  0.71428571  0.36363636
  0.85714286  0.71428571  0.45454545
  0.85714286  0.71428571  0.54545455
  0.85714286  0.71428571  0.63636364
  0.85714286  0.71428571  0.72727273
  0.85714286  0.71428571  0.81818182
  0.85714286  0.71428571  0.90909091
  0.85714286  0.85714286  0.00000000
  0.85714286  0.85714286  0.09090909
  0.85714286  0.85714286  0.18181818
  0.85714286  0.85714286  0.27272727
  0.85714286  0.85714286  0.36363636
  0.85714286  0.85714286  0.45454545
  0.85714286  0.85714286  0.54545455
  0.85714286  0.85714286  0.63636364
  0.85714286  0.85714286  0.72727273
  0.85714286  0.85714286  0.81818182
  0.85714286  0.85714286  0.90909091
end kpoints
